LOCATION,Hannover,Niedersachsen,DEU,semio-fixture,10238,52.37,9.74,1.0,55.0
DESIGN CONDITIONS,1,Climate Design Data 2009 ASHRAE Handbook,,Heating,7,-11.5,-9.2,-18.6,2.9,-7.8,-15.5,3.4,4.1,-6,17.9,-4.9,17.2,-3.1,16.5,4.2,180,Cooling,7,10.4,32.4,21.9,30.9,21.5,29.5,21.1,22.8,29.6,21.9,28.4,21.4,27.4,20.9,4.4,300,17.9,12.1,26.2,16.6,11.4,25.2,16,10.7,24.4,64.5,29,60.9,27.9,58.1,27,1017,Extremes,10.2,8.6,7.4,29.4,-19.6,36.5,3.1,1.4,-21.6,38.1,-23.1,39.4,-24.5,40.5,-26.6,42.2
TYPICAL/EXTREME PERIODS,6,Summer - Week Nearest Max Temperature For Period,Extreme,7/ 8,7/14,Summer - Week Nearest Average Temperature For Period,Typical,6/24,6/30,Winter - Week Nearest Min Temperature For Period,Extreme,1/ 1,1/ 7,Winter - Week Nearest Average Temperature For Period,Typical,1/22,1/28,Autumn - Week Nearest Average Temperature For Period,Typical,10/22,10/28,Spring - Week Nearest Average Temperature For Period,Typical,4/15,4/21
GROUND TEMPERATURES,3,0.5,,,,4.90,4.20,5.40,8.70,13.70,17.60,19.60,19.10,16.30,12.30,8.40,5.90,2.0,,,,7.00,6.10,6.70,9.00,12.80,16.10,18.10,18.10,16.10,13.10,10.00,7.90,4.0,,,,9.20,8.10,8.10,9.40,11.90,14.30,16.10,16.60,15.60,13.80,11.60,9.90
HOLIDAYS/DAYLIGHT SAVINGS,No,0,0,0
COMMENTS 1,semio W0 handcrafted EPW fixture -- structurally valid, plausible values, not a real station record.
COMMENTS 2,Generated by make_epw.py for ticket SEMIO-ARTIFACT-UNIFIED-IMPORT-EXPORT-AND-MEDIA-FORMAT-RETIREMENT.
DATA PERIODS,1,1,Data,Sunday, 1/ 1, 1/ 1
2026,1,15,1,0,?9?9?9?9E0?9?9?9?9?9?9?9?9?9?9?9?9?9?9?9?9?9?9?9?9?9?9?9?9?9?9?9?9,-7.8,-12.3,92,101100,0,0,280,0,0,0,0,0,0,0,205,2.9,3,2,20.0,22000,0,999999999,14,0.081,0,88,0.2,0,0
2026,1,15,2,0,?9?9?9?9E0?9?9?9?9?9?9?9?9?9?9?9?9?9?9?9?9?9?9?9?9?9?9?9?9?9?9?9?9,-7.2,-11.7,91,101100,0,0,280,0,0,0,0,0,0,0,210,3.2,6,4,20.0,22000,0,999999999,14,0.081,0,88,0.2,0,0
2026,1,15,3,0,?9?9?9?9E0?9?9?9?9?9?9?9?9?9?9?9?9?9?9?9?9?9?9?9?9?9?9?9?9?9?9?9?9,-6.2,-10.7,88,101100,0,0,280,0,0,0,0,0,0,0,215,3.6,9,6,20.0,22000,0,999999999,14,0.081,0,88,0.2,0,0
2026,1,15,4,0,?9?9?9?9E0?9?9?9?9?9?9?9?9?9?9?9?9?9?9?9?9?9?9?9?9?9?9?9?9?9?9?9?9,-5.0,-9.5,84,101100,0,0,280,0,0,0,0,0,0,0,220,3.8,1,8,20.0,22000,0,999999999,14,0.081,0,88,0.2,0,0
2026,1,15,5,0,?9?9?9?9E0?9?9?9?9?9?9?9?9?9?9?9?9?9?9?9?9?9?9?9?9?9?9?9?9?9?9?9?9,-3.6,-8.1,80,101100,0,0,280,0,0,0,0,0,0,0,225,3.9,4,10,20.0,22000,0,999999999,14,0.081,0,88,0.2,0,0
2026,1,15,6,0,?9?9?9?9E0?9?9?9?9?9?9?9?9?9?9?9?9?9?9?9?9?9?9?9?9?9?9?9?9?9?9?9?9,-2.0,-6.5,75,101100,0,1415,280,0,0,0,0,0,0,0,230,4.0,7,1,20.0,22000,0,999999999,14,0.081,0,88,0.2,0,0
2026,1,15,7,0,?9?9?9?9E0?9?9?9?9?9?9?9?9?9?9?9?9?9?9?9?9?9?9?9?9?9?9?9?9?9?9?9?9,-0.4,-4.9,70,101100,311,1415,285,168,129,39,18117,15529,3882,1165,235,3.9,10,3,20.0,22000,0,999999999,14,0.081,0,88,0.2,0,0
2026,1,15,8,0,?9?9?9?9E0?9?9?9?9?9?9?9?9?9?9?9?9?9?9?9?9?9?9?9?9?9?9?9?9?9?9?9?9,1.0,-3.5,66,101100,600,1415,290,325,250,75,35000,30000,7500,2250,240,3.8,2,5,20.0,22000,0,999999999,14,0.081,0,88,0.2,0,0
2026,1,15,9,0,?9?9?9?9E0?9?9?9?9?9?9?9?9?9?9?9?9?9?9?9?9?9?9?9?9?9?9?9?9?9?9?9?9,2.2,-2.3,62,101100,849,1415,294,460,354,106,49497,42426,10607,3182,245,3.6,5,7,20.0,22000,0,999999999,14,0.081,0,88,0.2,0,0
2026,1,15,10,0,?9?9?9?9E0?9?9?9?9?9?9?9?9?9?9?9?9?9?9?9?9?9?9?9?9?9?9?9?9?9?9?9?9,3.2,-1.3,59,101100,1039,1415,297,563,433,130,60622,51962,12990,3897,250,3.2,8,9,20.0,22000,0,999999999,14,0.081,0,88,0.2,0,0
2026,1,15,11,0,?9?9?9?9E0?9?9?9?9?9?9?9?9?9?9?9?9?9?9?9?9?9?9?9?9?9?9?9?9?9?9?9?9,3.8,-0.7,58,101100,1159,1415,299,628,483,145,67615,57956,14489,4347,255,2.9,0,0,20.0,22000,0,999999999,14,0.081,0,88,0.2,0,0
2026,1,15,12,0,?9?9?9?9E0?9?9?9?9?9?9?9?9?9?9?9?9?9?9?9?9?9?9?9?9?9?9?9?9?9?9?9?9,4.0,-0.5,57,101100,1200,1415,300,650,500,150,70000,60000,15000,4500,260,2.5,3,2,20.0,22000,0,999999999,14,0.081,0,88,0.2,0,0
2026,1,15,13,0,?9?9?9?9E0?9?9?9?9?9?9?9?9?9?9?9?9?9?9?9?9?9?9?9?9?9?9?9?9?9?9?9?9,3.8,-0.7,58,101100,1159,1415,299,628,483,145,67615,57956,14489,4347,265,2.1,6,4,20.0,22000,0,999999999,14,0.081,0,88,0.2,0,0
2026,1,15,14,0,?9?9?9?9E0?9?9?9?9?9?9?9?9?9?9?9?9?9?9?9?9?9?9?9?9?9?9?9?9?9?9?9?9,3.2,-1.3,59,101100,1039,1415,297,563,433,130,60622,51962,12990,3897,270,1.7,9,6,20.0,22000,0,999999999,14,0.081,0,88,0.2,0,0
2026,1,15,15,0,?9?9?9?9E0?9?9?9?9?9?9?9?9?9?9?9?9?9?9?9?9?9?9?9?9?9?9?9?9?9?9?9?9,2.2,-2.3,62,101100,849,1415,294,460,354,106,49497,42426,10607,3182,275,1.4,1,8,20.0,22000,0,999999999,14,0.081,0,88,0.2,0,0
2026,1,15,16,0,?9?9?9?9E0?9?9?9?9?9?9?9?9?9?9?9?9?9?9?9?9?9?9?9?9?9?9?9?9?9?9?9?9,1.0,-3.5,66,101100,600,1415,290,325,250,75,35000,30000,7500,2250,280,1.2,4,10,20.0,22000,0,999999999,14,0.081,0,88,0.2,0,0
2026,1,15,17,0,?9?9?9?9E0?9?9?9?9?9?9?9?9?9?9?9?9?9?9?9?9?9?9?9?9?9?9?9?9?9?9?9?9,-0.4,-4.9,70,101100,311,1415,285,168,129,39,18117,15529,3882,1165,285,1.1,7,1,20.0,22000,0,999999999,14,0.081,0,88,0.2,0,0
2026,1,15,18,0,?9?9?9?9E0?9?9?9?9?9?9?9?9?9?9?9?9?9?9?9?9?9?9?9?9?9?9?9?9?9?9?9?9,-2.0,-6.5,75,101100,0,1415,280,0,0,0,0,0,0,0,290,1.0,10,3,20.0,22000,0,999999999,14,0.081,0,88,0.2,0,0
2026,1,15,19,0,?9?9?9?9E0?9?9?9?9?9?9?9?9?9?9?9?9?9?9?9?9?9?9?9?9?9?9?9?9?9?9?9?9,-3.6,-8.1,80,101100,0,0,280,0,0,0,0,0,0,0,295,1.1,2,5,20.0,22000,0,999999999,14,0.081,0,88,0.2,0,0
2026,1,15,20,0,?9?9?9?9E0?9?9?9?9?9?9?9?9?9?9?9?9?9?9?9?9?9?9?9?9?9?9?9?9?9?9?9?9,-5.0,-9.5,84,101100,0,0,280,0,0,0,0,0,0,0,300,1.2,5,7,20.0,22000,0,999999999,14,0.081,0,88,0.2,0,0
2026,1,15,21,0,?9?9?9?9E0?9?9?9?9?9?9?9?9?9?9?9?9?9?9?9?9?9?9?9?9?9?9?9?9?9?9?9?9,-6.2,-10.7,88,101100,0,0,280,0,0,0,0,0,0,0,305,1.4,8,9,20.0,22000,0,999999999,14,0.081,0,88,0.2,0,0
2026,1,15,22,0,?9?9?9?9E0?9?9?9?9?9?9?9?9?9?9?9?9?9?9?9?9?9?9?9?9?9?9?9?9?9?9?9?9,-7.2,-11.7,91,101100,0,0,280,0,0,0,0,0,0,0,310,1.7,0,0,20.0,22000,0,999999999,14,0.081,0,88,0.2,0,0
2026,1,15,23,0,?9?9?9?9E0?9?9?9?9?9?9?9?9?9?9?9?9?9?9?9?9?9?9?9?9?9?9?9?9?9?9?9?9,-7.8,-12.3,92,101100,0,0,280,0,0,0,0,0,0,0,315,2.1,3,2,20.0,22000,0,999999999,14,0.081,0,88,0.2,0,0
2026,1,15,24,0,?9?9?9?9E0?9?9?9?9?9?9?9?9?9?9?9?9?9?9?9?9?9?9?9?9?9?9?9?9?9?9?9?9,-8.0,-12.5,93,101100,0,0,280,0,0,0,0,0,0,0,320,2.5,6,4,20.0,22000,0,999999999,14,0.081,0,88,0.2,0,0
